120
150
55
29
41
67
52
66
85
27
41
25
30
25
98
30
55
59
73
81
68
59
46
29
36
58
95
67
59
83
83
95
90
24
93
46
93
55
74
77
99
82
86
89
24
90
100
93
96
55
68
74
45
95
54
51
95
99
51
79
96
59
22
71
55
96
73
55
54
29
25
96
72
25
79
98
52
57
29
57
67
64
28
61
29
67
71
82
68
78
59
81
89
86
63
98
78
99
61
52
74
98
85
86
95
65
55
95
52
68
72
81
69
95
74
82
78
68
55
72
63
55
